unknown
(model
; cardinality of BoundSet is 1
(declare-sort BoundSet 0)
; rep: @uc_BoundSet_0
; cardinality of UnboundSet is 1
(declare-sort UnboundSet 0)
(declare-fun groundTerm_2 () UnboundSet)
(define-fun IsMean ((BOUND_VARIABLE_353 BoundSet)) Bool true)
(define-fun IsRaisedBy ((BOUND_VARIABLE_370 BoundSet) (BOUND_VARIABLE_371 BoundSet) (BOUND_VARIABLE_372 BoundSet)) Bool false)
)
sat
(model
; cardinality of BoundSet is 1
(declare-sort BoundSet 0)
; rep: @uc_BoundSet_0
; cardinality of UnboundSet is 1
(declare-sort UnboundSet 0)
(declare-fun groundTerm_4 () UnboundSet)
(define-fun IsMean ((BOUND_VARIABLE_366 BoundSet)) Bool true)
(define-fun IsRaisedBy ((BOUND_VARIABLE_377 BoundSet) (BOUND_VARIABLE_378 BoundSet) (BOUND_VARIABLE_379 BoundSet)) Bool true)
)
